0 5318.66
1 5309.51
2 5309.51
3 5302.26
4 5251.09
5 5251.09
6 5211.35
7 5211.35
8 5211.35
9 5211.35
10 5211.35
11 5203.71
12 5168.24
13 5168.24
14 5168.24
15 5168.24
16 5168.24
17 5168.24
18 5168.24
19 5168.24
20 5141.55
21 5141.55
22 5128.97
23 5128.97
24 5128.97
25 5128.97
26 5128.97
27 5111.75
28 5111.75
29 5111.75
30 5094.49
31 5094.49
32 5094.49
33 5094.49
34 5094.49
35 5094.49
36 5094.49
37 5094.49
38 5052.42
39 5052.42
40 5052.42
41 5052.42
42 5052.42
43 5052.42
44 5052.42
45 5052.42
46 5052.42
47 5052.42
48 5052.42
49 5052.42
50 5052.42
51 5052.42
52 5052.42
53 5052.42
54 5052.42
55 5052.42
56 5052.42
57 5052.42
58 5052.42
59 5052.42
60 5052.42
61 5045.19
62 5045.19
63 5045.19
64 5045.19
65 5045.19
66 5045.19
67 5045.19
68 5045.19
69 5045.19
70 5045.19
71 5045.19
72 5045.19
73 5045.19
74 5045.19
75 5045.19
76 5045.19
77 5045.19
78 5045.19
79 5045.19
80 5045.19
81 5045.19
82 5045.19
83 5045.19
84 5045.19
85 5045.19
86 5045.19
87 5045.19
88 5045.19
89 5045.19
90 5045.19
91 5045.19
92 5045.19
93 5045.19
94 5045.19
95 5043.07
96 5043.07
97 5043.07
98 5043.07
99 5043.07
100 5043.07
101 5043.07
102 5043.07
103 5043.07
104 5043.07
105 5043.07
106 5043.07
107 5043.07
108 5043.07
109 5043.07
110 5043.07
111 5043.07
112 5043.07
113 5043.07
114 5039.76
115 5038.62
116 5038.62
117 5038.62
118 5038.62
119 5015.35
120 5015.35
121 5015.35
122 5015.35
123 5015.35
124 5015.35
125 5015.35
126 5015.35
127 5015.35
128 5015.35
129 5015.35
130 5015.35
131 5015.35
132 5015.35
133 5015.35
134 5015.35
135 5015.35
136 5015.35
137 5015.35
138 5015.35
139 5015.35
140 5015.35
141 5015.35
142 5002.60
143 5002.60
144 5002.60
145 5002.60
146 5002.60
147 5002.60
148 5002.60
149 5002.60
150 5002.60
151 5002.60
152 5002.60
153 5002.60
154 5002.60
155 5002.60
156 5002.60
157 5002.60
158 5002.60
159 5002.60
160 5002.60
161 5002.60
162 5002.60
163 5002.60
164 5002.60
165 4985.95
166 4985.95
167 4985.95
168 4985.95
169 4985.95
170 4985.95
171 4985.95
172 4985.95
173 4985.95
174 4985.95
175 4985.95
176 4985.95
177 4985.78
178 4985.78
179 4985.78
180 4985.78
181 4985.78
182 4985.78
183 4985.78
184 4985.78
185 4985.78
186 4985.78
187 4985.78
188 4985.78
189 4985.78
190 4985.78
191 4985.78
192 4985.78
193 4985.78
194 4985.78
195 4985.78
196 4985.78
197 4984.70
198 4984.70
199 4980.30
200 4980.30
201 4980.30
202 4980.30
203 4980.30
204 4980.30
205 4980.30
206 4980.30
207 4980.30
208 4980.30
209 4980.30
210 4980.30
211 4980.30
212 4980.30
213 4980.30
214 4980.30
215 4980.30
216 4980.30
217 4980.30
218 4980.30
219 4980.30
220 4980.30
221 4980.30
222 4980.30
223 4980.30
224 4980.30
225 4980.30
226 4980.30
227 4980.30
228 4980.30
229 4980.30
230 4980.30
231 4980.30
232 4980.30
233 4979.41
234 4979.41
235 4979.41
236 4979.41
237 4979.41
238 4979.41
239 4979.41
240 4979.41
241 4979.41
242 4979.41
243 4979.41
244 4971.12
245 4971.12
246 4971.12
247 4971.12
248 4971.12
249 4971.12
250 4971.12
251 4971.12
252 4971.12
253 4971.12
254 4971.12
255 4971.12
256 4971.12
257 4971.12
258 4971.12
259 4971.12
260 4971.12
261 4971.12
262 4971.12
263 4971.12
264 4971.12
265 4971.12
266 4971.12
267 4971.12
268 4971.12
269 4971.12
270 4971.12
271 4971.12
272 4971.12
273 4964.37
274 4964.37
275 4964.37
276 4964.37
277 4964.37
278 4964.37
279 4964.37
280 4964.37
281 4964.37
282 4964.37
283 4964.37
284 4964.37
285 4964.37
286 4964.37
287 4964.37
288 4964.37
289 4964.37
290 4964.37
291 4964.37
292 4964.37
293 4964.37
294 4964.37
295 4964.37
296 4964.37
297 4964.37
298 4964.37
299 4964.37
300 4964.37
301 4964.37
302 4964.37
303 4964.37
304 4964.37
305 4964.37
306 4964.37
307 4964.37
308 4964.37
309 4964.37
310 4964.37
311 4964.37
312 4964.37
313 4964.37
314 4964.37
315 4964.37
316 4964.37
317 4964.37
318 4964.37
319 4964.37
320 4964.37
321 4964.37
322 4964.37
323 4964.37
324 4964.37
325 4964.37
326 4964.37
327 4964.37
328 4964.37
329 4964.37
330 4964.37
331 4964.37
332 4964.37
333 4964.37
334 4964.37
335 4950.23
336 4950.23
337 4950.23
338 4950.23
339 4950.23
340 4950.23
341 4950.23
342 4950.23
343 4950.23
344 4950.23
345 4950.23
346 4950.23
347 4950.23
348 4950.23
349 4950.23
350 4950.23
351 4950.23
352 4950.23
353 4950.23
354 4950.23
355 4950.23
356 4950.23
357 4950.23
358 4950.23
359 4950.23
360 4950.23
361 4950.23
362 4950.23
363 4950.23
364 4950.23
365 4950.23
366 4950.23
367 4950.23
368 4950.23
369 4950.23
370 4950.23
371 4950.23
372 4950.23
373 4950.23
374 4950.23
375 4950.23
376 4950.23
377 4950.23
378 4950.23
379 4950.23
380 4950.23
381 4950.23
382 4950.23
383 4950.23
384 4950.23
385 4950.23
386 4950.23
387 4950.23
388 4950.23
389 4950.23
390 4950.23
391 4950.23
392 4950.23
393 4950.23
394 4950.23
395 4950.23
396 4950.23
397 4950.23
398 4950.23
399 4950.23
400 4950.23
401 4950.23
402 4950.23
403 4950.23
404 4950.23
405 4950.23
406 4950.23
407 4950.23
408 4950.23
409 4950.23
410 4950.23
411 4950.23
412 4950.23
413 4950.23
414 4950.23
415 4950.23
416 4950.23
417 4950.23
418 4950.23
419 4950.23
420 4950.23
421 4950.23
422 4950.23
423 4950.23
424 4950.23
425 4950.23
426 4950.23
427 4950.23
428 4950.23
429 4950.23
430 4950.23
431 4950.23
432 4950.23
433 4950.23
434 4950.23
435 4950.23
436 4950.23
437 4950.23
438 4950.23
439 4950.23
440 4950.23
441 4950.23
442 4950.23
443 4950.23
444 4950.23
445 4950.23
446 4950.23
447 4950.23
448 4950.23
449 4950.23
450 4950.23
451 4950.23
452 4950.23
453 4950.23
454 4950.23
455 4950.23
456 4950.23
457 4950.23
458 4950.23
459 4950.23
460 4950.23
461 4950.23
462 4950.23
463 4950.23
464 4950.23
465 4950.23
466 4950.23
467 4950.23
468 4950.23
469 4950.04
470 4950.04
471 4950.04
472 4950.04
473 4950.04
474 4950.04
475 4950.04
476 4948.83
477 4948.83
478 4948.83
479 4948.83
480 4948.82
481 4948.82
482 4948.82
483 4948.82
484 4948.82
485 4948.82
486 4948.82
487 4948.82
488 4948.82
489 4948.82
490 4948.82
491 4948.82
492 4948.82
493 4948.82
494 4948.82
495 4948.82
496 4948.82
497 4948.82
498 4948.82
499 4948.82
4 7 6 4 0 0 